CPXPARAM_MIP_Cuts_MIRCut#P20#0#1.946597#0.400265
CPXPARAM_MIP_Cuts_MIRCut#P20#1#3.056158#0.628416
CPXPARAM_MIP_Cuts_MIRCut#P20#2#4.084185#0.839801
CPXPARAM_MIP_Strategy_BBInterval#P33#2#3.792679#0.779861
CPXPARAM_MIP_Strategy_BBInterval#P33#7#2.846799#0.585367
CPXPARAM_MIP_Strategy_SubAlgorithm#P45#2#3.518265#0.723435
CPXPARAM_MIP_Strategy_SubAlgorithm#P45#3#2.269232#0.466606
CPXPARAM_MIP_Strategy_SubAlgorithm#P45#4#4.863275#1.000000
CPXPARAM_Preprocessing_Presolve#P57#1#4.863259#0.999997
